n = 13;
k = 3;
maxsize = 13;
nML = 3;
nCL = 3;
deg = [2, 2, 2, 2, 1, 1, 2, 1, 2, 1, 2, 2, 2];
ML = array2d(1..3, 1..2, [11, 7, 12, 5, 2, 8]);
CL = array2d(1..3, 1..2, [13, 9, 10, 1, 4, 6]);
A = array2d(1..13, 1..13, [ 0, 0, 0, 0, 0, 0, 1, 0, 0, 0, 0, 0, 1, 0, 0, 0, 0, 0, 0, 0, 0, 0, 1, 0, 1, 0, 0, 0, 0, 0, 0, 0, 1, 0, 0, 0, 0, 1, 0, 0, 0, 0, 0, 1, 0, 0, 0, 1, 0, 0, 0, 0, 0, 0, 0, 1, 0, 0, 0, 0, 0, 0, 0, 0, 0, 0, 0, 0, 0, 0, 0, 0, 1, 0, 0, 0, 0, 0, 1, 0, 1, 0, 0, 0, 0, 0, 0, 0, 0, 0, 0, 0, 0, 0, 0, 0, 1, 0, 0, 0, 0, 0, 0, 0, 0, 0, 0, 1, 0, 0, 0, 0, 0, 0, 1, 0, 0, 0, 1, 0, 0, 0, 0, 0, 0, 0, 0, 0, 0, 0, 0, 0, 0, 0, 0, 0, 0, 0, 1, 0, 0, 0, 1, 0, 1, 1, 0, 0, 0, 0, 0, 0, 0, 0, 0, 0, 1, 0, 0, 0, 0, 0, 0, 0, 0, 0, 1, 0, 0 ]);
W = array2d(1..13, 1..13, [ -6, 4, 10, 3, 2, -10, -2, 1, 4, -4, -1, 1, 9, -5, -6, -1, 5, -9, 1, 7, 8, -10, 10, 5, -9, -5, 8, -1, -7, -5, 2, 10, -7, -4, -7, 7, 3, 2, -9, 7, 9, -9, 10, -2, -8, 6, -7, -3, 3, 9, -4, -6, -1, 0, -5, -4, -10, 5, -1, 7, 8, -6, -10, 4, 5, 1, -4, 9, -7, -6, -8, -4, -5, 10, -8, 10, 9, 6, -2, 3, 6, 6, -7, 4, -1, 6, -9, -4, -2, 4, -9, 7, -10, 1, -3, 2, 10, 8, -4, -6, 5, 1, -3, -8, -9, -2, 1, -4, 8, 1, 4, 1, -10, 8, -8, -6, 10, -5, -1, -7, -10, 2, -9, -10, -2, 5, 4, 9, 2, 8, -9, -8, -1, 9, -8, -6, -2, -7, 7, -5, 6, -3, 7, -1, 8, 7, 10, 7, 4, 3, -10, 0, 7, 5, -4, -10, -10, 6, 0, 5, 7, 10, 7, 8, -10, -3, -4, -8, 6 ]);